JOBS = 1..3;
MACHINES = 1..7;
SPEED = 1;
time = array3d(JOBS,MACHINES,1..SPEED,[35,27,33,82,64,84,68,85,57,77,97,47,25,94,88,20,25,21,96,30,39]);
energy = array3d(JOBS,MACHINES,1..SPEED,[70,76,71,44,52,43,50,42,56,46,37,62,77,39,41,81,77,81,38,74,67]);
precedence = array2d(JOBS,MACHINES,[5,0,6,4,3,2,1,2,3,5,1,0,4,6,6,3,4,0,5,2,1]);
ME = 1;
TE = 243;
st_old = array2d(JOBS,MACHINES,[358,0,393,276,212,128,60,144,229,311,47,0,286,388,394,90,110,0,276,60,21]);
SpeedScaling = array2d(JOBS,MACHINES,[1,1,1,1,1,1,1,1,1,1,1,1,1,1,1,1,1,1,1,1,1]);
